
Gurobi 12.0.2 (win64) logging started Fri Jun  6 10:09:31 2025

Set parameter LogFile to value "C:\Ioana\_uni\honours\slp\algorithm\Main_files\results\others\prox_tubules_new\Task_003_Sample005_irr_gurobi.log"
Gurobi Optimizer version 12.0.2 build v12.0.2rc0 (win64 - Windows 11.0 (26100.2))

CPU model: Intel(R) Core(TM) Ultra 5 125H, instruction set [SSE2|AVX|AVX2]
Thread count: 14 physical cores, 18 logical processors, using up to 18 threads

Non-default parameters:
TimeLimit  2200

Optimize a model with 47658 rows, 34799 columns and 147846 nonzeros
Model fingerprint: 0x21289a94
Variable types: 17405 continuous, 17394 integer (17394 binary)
Coefficient statistics:
  Matrix range     [1e-04, 8e+04]
  Objective range  [5e-05, 3e+00]
  Bounds range     [1e+00, 1e+03]
  RHS range        [1e+00, 1e+00]
Presolve removed 31248 rows and 21835 columns
Presolve time: 0.32s
Presolved: 16410 rows, 12964 columns, 54603 nonzeros
Variable types: 6418 continuous, 6546 integer (6546 binary)

Root relaxation: objective 5.295706e-03, 2512 iterations, 0.18 seconds (0.34 work units)

    Nodes    |    Current Node    |     Objective Bounds      |     Work
 Expl Unexpl |  Obj  Depth IntInf | Incumbent    BestBd   Gap | It/Node Time

     0     0    0.00530    0   11          -    0.00530      -     -    0s
H    0     0                       4.4136291    0.00530   100%     -    0s
     0     0    1.77445    0   12    4.41363    1.77445  59.8%     -    0s
     0     0    1.77512    0   14    4.41363    1.77512  59.8%     -    0s
     0     0    1.88726    0   26    4.41363    1.88726  57.2%     -    1s
     0     0    1.88793    0   24    4.41363    1.88793  57.2%     -    1s
     0     0    2.65644    0   16    4.41363    2.65644  39.8%     -    1s
     0     0    3.53475    0   18    4.41363    3.53475  19.9%     -    1s
     0     0    3.53606    0   20    4.41363    3.53606  19.9%     -    1s
     0     0    3.55071    0   22    4.41363    3.55071  19.6%     -    1s
     0     0    4.40938    0    3    4.41363    4.40938  0.10%     -    1s
     0     0    4.40949    0    2    4.41363    4.40949  0.09%     -    1s
     0     0     cutoff    0         4.41363    4.41363  0.00%     -    1s

Cutting planes:
  Cover: 2
  MIR: 2
  Flow cover: 5

Explored 1 nodes (4655 simplex iterations) in 1.63 seconds (1.79 work units)
Thread count was 18 (of 18 available processors)

Solution count 1: 4.41363 

Optimal solution found (tolerance 1.00e-04)
Best objective 4.413629090966e+00, best bound 4.413629090966e+00, gap 0.0000%
